# Solution for model DIAM
# Objective value = 3
diameter 3
dist#0#1#2 1
dist#0#1#1 0
dist#0#1#0 0
dist#0#2#2 1
dist#0#2#1 1
dist#0#2#0 0
dist#0#3#2 1
dist#0#3#1 0
dist#0#3#0 0
dist#0#4#2 1
dist#0#4#1 0
dist#0#4#0 0
dist#0#5#2 1
dist#0#5#1 1
dist#0#5#0 0
dist#0#6#2 1
dist#0#6#1 0
dist#0#6#0 0
dist#0#7#2 1
dist#0#7#1 0
dist#0#7#0 0
dist#0#8#2 1
dist#0#8#1 1
dist#0#8#0 0
dist#0#9#2 1
dist#0#9#1 1
dist#0#9#0 0
dist#0#10#2 1
dist#0#10#1 1
dist#0#10#0 0
dist#0#11#2 0
dist#0#11#1 0
dist#0#11#0 1
dist#0#12#2 0
dist#0#12#1 1
dist#0#12#0 1
dist#0#13#2 1
dist#0#13#1 0
dist#0#13#0 1
dist#0#14#2 1
dist#0#14#1 1
dist#0#14#0 0
dist#1#2#2 0
dist#1#2#1 1
dist#1#2#0 0
dist#1#3#2 1
dist#1#3#1 1
dist#1#3#0 0
dist#1#4#2 0
dist#1#4#1 1
dist#1#4#0 0
dist#1#5#2 1
dist#1#5#1 0
dist#1#5#0 0
dist#1#6#2 0
dist#1#6#1 0
dist#1#6#0 1
dist#1#7#2 0
dist#1#7#1 0
dist#1#7#0 1
dist#1#8#2 1
dist#1#8#1 0
dist#1#8#0 1
dist#1#9#2 1
dist#1#9#1 0
dist#1#9#0 0
dist#1#10#2 0
dist#1#10#1 1
dist#1#10#0 0
dist#1#11#2 1
dist#1#11#1 0
dist#1#11#0 0
dist#1#12#2 0
dist#1#12#1 1
dist#1#12#0 0
dist#1#13#2 1
dist#1#13#1 0
dist#1#13#0 0
dist#1#14#2 0
dist#1#14#1 1
dist#1#14#0 0
dist#2#3#2 1
dist#2#3#1 0
dist#2#3#0 0
dist#2#4#2 1
dist#2#4#1 1
dist#2#4#0 0
dist#2#5#2 0
dist#2#5#1 1
dist#2#5#0 0
dist#2#6#2 1
dist#2#6#1 0
dist#2#6#0 0
dist#2#7#2 0
dist#2#7#1 0
dist#2#7#0 1
dist#2#8#2 1
dist#2#8#1 0
dist#2#8#0 0
dist#2#9#2 0
dist#2#9#1 0
dist#2#9#0 1
dist#2#10#2 1
dist#2#10#1 1
dist#2#10#0 0
dist#2#11#2 0
dist#2#11#1 1
dist#2#11#0 1
dist#2#12#2 1
dist#2#12#1 0
dist#2#12#0 0
dist#2#13#2 1
dist#2#13#1 1
dist#2#13#0 0
dist#2#14#2 1
dist#2#14#1 0
dist#2#14#0 0
dist#3#4#2 0
dist#3#4#1 1
dist#3#4#0 1
dist#3#5#2 0
dist#3#5#1 1
dist#3#5#0 0
dist#3#6#2 0
dist#3#6#1 0
dist#3#6#0 1
dist#3#7#2 0
dist#3#7#1 1
dist#3#7#0 0
dist#3#8#2 1
dist#3#8#1 1
dist#3#8#0 0
dist#3#9#2 1
dist#3#9#1 0
dist#3#9#0 0
dist#3#10#2 0
dist#3#10#1 0
dist#3#10#0 1
dist#3#11#2 1
dist#3#11#1 1
dist#3#11#0 0
dist#3#12#2 1
dist#3#12#1 0
dist#3#12#0 0
dist#3#13#2 1
dist#3#13#1 0
dist#3#13#0 0
dist#3#14#2 0
dist#3#14#1 1
dist#3#14#0 0
dist#4#5#2 1
dist#4#5#1 1
dist#4#5#0 1
dist#4#6#2 1
dist#4#6#1 1
dist#4#6#0 0
dist#4#7#2 1
dist#4#7#1 1
dist#4#7#0 1
dist#4#8#2 1
dist#4#8#1 0
dist#4#8#0 0
dist#4#9#2 0
dist#4#9#1 1
dist#4#9#0 0
dist#4#10#2 1
dist#4#10#1 0
dist#4#10#0 0
dist#4#11#2 1
dist#4#11#1 0
dist#4#11#0 0
dist#4#12#2 1
dist#4#12#1 0
dist#4#12#0 0
dist#4#13#2 1
dist#4#13#1 0
dist#4#13#0 0
dist#4#14#2 1
dist#4#14#1 0
dist#4#14#0 0
dist#5#6#2 1
dist#5#6#1 0
dist#5#6#0 0
dist#5#7#2 1
dist#5#7#1 0
dist#5#7#0 0
dist#5#8#2 1
dist#5#8#1 1
dist#5#8#0 0
dist#5#9#2 0
dist#5#9#1 0
dist#5#9#0 1
dist#5#10#2 1
dist#5#10#1 0
dist#5#10#0 0
dist#5#11#2 1
dist#5#11#1 0
dist#5#11#0 0
dist#5#12#2 0
dist#5#12#1 1
dist#5#12#0 1
dist#5#13#2 1
dist#5#13#1 1
dist#5#13#0 0
dist#5#14#2 1
dist#5#14#1 0
dist#5#14#0 0
dist#6#7#2 1
dist#6#7#1 1
dist#6#7#0 0
dist#6#8#2 0
dist#6#8#1 1
dist#6#8#0 0
dist#6#9#2 1
dist#6#9#1 0
dist#6#9#0 0
dist#6#10#2 1
dist#6#10#1 1
dist#6#10#0 0
dist#6#11#2 1
dist#6#11#1 0
dist#6#11#0 0
dist#6#12#2 1
dist#6#12#1 0
dist#6#12#0 0
dist#6#13#2 1
dist#6#13#1 1
dist#6#13#0 0
dist#6#14#2 0
dist#6#14#1 0
dist#6#14#0 1
dist#7#8#2 1
dist#7#8#1 1
dist#7#8#0 0
dist#7#9#2 0
dist#7#9#1 1
dist#7#9#0 0
dist#7#10#2 1
dist#7#10#1 0
dist#7#10#0 0
dist#7#11#2 1
dist#7#11#1 1
dist#7#11#0 0
dist#7#12#2 1
dist#7#12#1 0
dist#7#12#0 0
dist#7#13#2 1
dist#7#13#1 0
dist#7#13#0 0
dist#7#14#2 1
dist#7#14#1 0
dist#7#14#0 0
dist#8#9#2 1
dist#8#9#1 0
dist#8#9#0 0
dist#8#10#2 1
dist#8#10#1 1
dist#8#10#0 1
dist#8#11#2 1
dist#8#11#1 1
dist#8#11#0 0
dist#8#12#2 0
dist#8#12#1 1
dist#8#12#0 1
dist#8#13#2 1
dist#8#13#1 0
dist#8#13#0 0
dist#8#14#2 1
dist#8#14#1 0
dist#8#14#0 0
dist#9#10#2 1
dist#9#10#1 0
dist#9#10#0 0
dist#9#11#2 1
dist#9#11#1 1
dist#9#11#0 0
dist#9#12#2 1
dist#9#12#1 0
dist#9#12#0 0
dist#9#13#2 1
dist#9#13#1 1
dist#9#13#0 1
dist#9#14#2 1
dist#9#14#1 0
dist#9#14#0 0
dist#10#11#2 1
dist#10#11#1 1
dist#10#11#0 1
dist#10#12#2 1
dist#10#12#1 0
dist#10#12#0 0
dist#10#13#2 1
dist#10#13#1 0
dist#10#13#0 0
dist#10#14#2 1
dist#10#14#1 0
dist#10#14#0 0
dist#11#12#2 1
dist#11#12#1 1
dist#11#12#0 0
dist#11#13#2 1
dist#11#13#1 1
dist#11#13#0 0
dist#11#14#2 1
dist#11#14#1 0
dist#11#14#0 0
dist#12#13#2 0
dist#12#13#1 1
dist#12#13#0 0
dist#12#14#2 1
dist#12#14#1 0
dist#12#14#0 0
dist#13#14#2 1
dist#13#14#1 0
dist#13#14#0 1
